SOme text
1
          0.00000          2.84304          2.84304
          2.84304          0.00000          2.84304
          2.84304          2.84304          0.00000
    Eu     S
     1     1
Cartesian
          0.00000          0.00000          0.00000
         -2.84304         -2.84304         -2.84304
